61
120
96	1
94	2
92	3
91	1
88	2
87	2
85	1
84	2
83	1
82	1
81	1
80	4
79	1
78	1
76	1
75	2
74	1
73	1
71	1
69	1
68	1
66	1
65	3
63	1
62	4
60	1
58	4
57	1
54	3
53	4
52	1
51	1
50	3
49	2
47	1
45	1
44	2
43	1
41	1
39	1
38	1
36	3
34	2
33	1
32	1
31	2
30	2
26	1
25	1
24	2
23	1
22	1
21	1
20	2
19	1
18	3
16	3
15	1
14	1
13	2
12	1
